c File: flat75_3_0.col
c
c SOURCE: Joseph Culberson (joe@cs.ualberta.ca)
c DESCRIPTION: Quasi-random coloring problem
c              generated with flatness = 0
c                             probability = 0.096
c                             known coloring = 3
c                             random seed = 1066
c              Creation Date:  Wed Feb 24 10:42:06 1999
c Maximum degree = 8 Minimum degree = 1
c COLOR VERIFICATION: Using the permuted order
c under simple greedy yields the specified
c coloring number
c Color = 3 specified partitions = 3
c p edge 75 180
c cnf created by edge2cnf
p cnf 225 840
-1 -2 0
-1 -3 0
-2 -3 0
1 2 3 0
-4 -5 0
-4 -6 0
-5 -6 0
4 5 6 0
-7 -8 0
-7 -9 0
-8 -9 0
7 8 9 0
-10 -11 0
-10 -12 0
-11 -12 0
10 11 12 0
-13 -14 0
-13 -15 0
-14 -15 0
13 14 15 0
-16 -17 0
-16 -18 0
-17 -18 0
16 17 18 0
-19 -20 0
-19 -21 0
-20 -21 0
19 20 21 0
-22 -23 0
-22 -24 0
-23 -24 0
22 23 24 0
-25 -26 0
-25 -27 0
-26 -27 0
25 26 27 0
-28 -29 0
-28 -30 0
-29 -30 0
28 29 30 0
-31 -32 0
-31 -33 0
-32 -33 0
31 32 33 0
-34 -35 0
-34 -36 0
-35 -36 0
34 35 36 0
-37 -38 0
-37 -39 0
-38 -39 0
37 38 39 0
-40 -41 0
-40 -42 0
-41 -42 0
40 41 42 0
-43 -44 0
-43 -45 0
-44 -45 0
43 44 45 0
-46 -47 0
-46 -48 0
-47 -48 0
46 47 48 0
-49 -50 0
-49 -51 0
-50 -51 0
49 50 51 0
-52 -53 0
-52 -54 0
-53 -54 0
52 53 54 0
-55 -56 0
-55 -57 0
-56 -57 0
55 56 57 0
-58 -59 0
-58 -60 0
-59 -60 0
58 59 60 0
-61 -62 0
-61 -63 0
-62 -63 0
61 62 63 0
-64 -65 0
-64 -66 0
-65 -66 0
64 65 66 0
-67 -68 0
-67 -69 0
-68 -69 0
67 68 69 0
-70 -71 0
-70 -72 0
-71 -72 0
70 71 72 0
-73 -74 0
-73 -75 0
-74 -75 0
73 74 75 0
-76 -77 0
-76 -78 0
-77 -78 0
76 77 78 0
-79 -80 0
-79 -81 0
-80 -81 0
79 80 81 0
-82 -83 0
-82 -84 0
-83 -84 0
82 83 84 0
-85 -86 0
-85 -87 0
-86 -87 0
85 86 87 0
-88 -89 0
-88 -90 0
-89 -90 0
88 89 90 0
-91 -92 0
-91 -93 0
-92 -93 0
91 92 93 0
-94 -95 0
-94 -96 0
-95 -96 0
94 95 96 0
-97 -98 0
-97 -99 0
-98 -99 0
97 98 99 0
-100 -101 0
-100 -102 0
-101 -102 0
100 101 102 0
-103 -104 0
-103 -105 0
-104 -105 0
103 104 105 0
-106 -107 0
-106 -108 0
-107 -108 0
106 107 108 0
-109 -110 0
-109 -111 0
-110 -111 0
109 110 111 0
-112 -113 0
-112 -114 0
-113 -114 0
112 113 114 0
-115 -116 0
-115 -117 0
-116 -117 0
115 116 117 0
-118 -119 0
-118 -120 0
-119 -120 0
118 119 120 0
-121 -122 0
-121 -123 0
-122 -123 0
121 122 123 0
-124 -125 0
-124 -126 0
-125 -126 0
124 125 126 0
-127 -128 0
-127 -129 0
-128 -129 0
127 128 129 0
-130 -131 0
-130 -132 0
-131 -132 0
130 131 132 0
-133 -134 0
-133 -135 0
-134 -135 0
133 134 135 0
-136 -137 0
-136 -138 0
-137 -138 0
136 137 138 0
-139 -140 0
-139 -141 0
-140 -141 0
139 140 141 0
-142 -143 0
-142 -144 0
-143 -144 0
142 143 144 0
-145 -146 0
-145 -147 0
-146 -147 0
145 146 147 0
-148 -149 0
-148 -150 0
-149 -150 0
148 149 150 0
-151 -152 0
-151 -153 0
-152 -153 0
151 152 153 0
-154 -155 0
-154 -156 0
-155 -156 0
154 155 156 0
-157 -158 0
-157 -159 0
-158 -159 0
157 158 159 0
-160 -161 0
-160 -162 0
-161 -162 0
160 161 162 0
-163 -164 0
-163 -165 0
-164 -165 0
163 164 165 0
-166 -167 0
-166 -168 0
-167 -168 0
166 167 168 0
-169 -170 0
-169 -171 0
-170 -171 0
169 170 171 0
-172 -173 0
-172 -174 0
-173 -174 0
172 173 174 0
-175 -176 0
-175 -177 0
-176 -177 0
175 176 177 0
-178 -179 0
-178 -180 0
-179 -180 0
178 179 180 0
-181 -182 0
-181 -183 0
-182 -183 0
181 182 183 0
-184 -185 0
-184 -186 0
-185 -186 0
184 185 186 0
-187 -188 0
-187 -189 0
-188 -189 0
187 188 189 0
-190 -191 0
-190 -192 0
-191 -192 0
190 191 192 0
-193 -194 0
-193 -195 0
-194 -195 0
193 194 195 0
-196 -197 0
-196 -198 0
-197 -198 0
196 197 198 0
-199 -200 0
-199 -201 0
-200 -201 0
199 200 201 0
-202 -203 0
-202 -204 0
-203 -204 0
202 203 204 0
-205 -206 0
-205 -207 0
-206 -207 0
205 206 207 0
-208 -209 0
-208 -210 0
-209 -210 0
208 209 210 0
-211 -212 0
-211 -213 0
-212 -213 0
211 212 213 0
-214 -215 0
-214 -216 0
-215 -216 0
214 215 216 0
-217 -218 0
-217 -219 0
-218 -219 0
217 218 219 0
-220 -221 0
-220 -222 0
-221 -222 0
220 221 222 0
-223 -224 0
-223 -225 0
-224 -225 0
223 224 225 0
-37 -1 0
-38 -2 0
-39 -3 0
-169 -1 0
-170 -2 0
-171 -3 0
-187 -1 0
-188 -2 0
-189 -3 0
-31 -4 0
-32 -5 0
-33 -6 0
-52 -4 0
-53 -5 0
-54 -6 0
-67 -4 0
-68 -5 0
-69 -6 0
-142 -4 0
-143 -5 0
-144 -6 0
-190 -4 0
-191 -5 0
-192 -6 0
-106 -7 0
-107 -8 0
-108 -9 0
-214 -7 0
-215 -8 0
-216 -9 0
-88 -10 0
-89 -11 0
-90 -12 0
-58 -13 0
-59 -14 0
-60 -15 0
-70 -13 0
-71 -14 0
-72 -15 0
-94 -13 0
-95 -14 0
-96 -15 0
-133 -13 0
-134 -14 0
-135 -15 0
-142 -13 0
-143 -14 0
-144 -15 0
-160 -13 0
-161 -14 0
-162 -15 0
-193 -13 0
-194 -14 0
-195 -15 0
-25 -16 0
-26 -17 0
-27 -18 0
-46 -16 0
-47 -17 0
-48 -18 0
-73 -16 0
-74 -17 0
-75 -18 0
-118 -16 0
-119 -17 0
-120 -18 0
-133 -16 0
-134 -17 0
-135 -18 0
-196 -16 0
-197 -17 0
-198 -18 0
-223 -16 0
-224 -17 0
-225 -18 0
-34 -19 0
-35 -20 0
-36 -21 0
-46 -19 0
-47 -20 0
-48 -21 0
-61 -19 0
-62 -20 0
-63 -21 0
-73 -19 0
-74 -20 0
-75 -21 0
-148 -19 0
-149 -20 0
-150 -21 0
-28 -22 0
-29 -23 0
-30 -24 0
-37 -22 0
-38 -23 0
-39 -24 0
-148 -22 0
-149 -23 0
-150 -24 0
-169 -22 0
-170 -23 0
-171 -24 0
-172 -22 0
-173 -23 0
-174 -24 0
-52 -25 0
-53 -26 0
-54 -27 0
-70 -25 0
-71 -26 0
-72 -27 0
-85 -25 0
-86 -26 0
-87 -27 0
-115 -25 0
-116 -26 0
-117 -27 0
-151 -25 0
-152 -26 0
-153 -27 0
-160 -25 0
-161 -26 0
-162 -27 0
-175 -25 0
-176 -26 0
-177 -27 0
-100 -28 0
-101 -29 0
-102 -30 0
-139 -28 0
-140 -29 0
-141 -30 0
-208 -28 0
-209 -29 0
-210 -30 0
-109 -31 0
-110 -32 0
-111 -33 0
-124 -31 0
-125 -32 0
-126 -33 0
-160 -31 0
-161 -32 0
-162 -33 0
-175 -31 0
-176 -32 0
-177 -33 0
-181 -31 0
-182 -32 0
-183 -33 0
-163 -34 0
-164 -35 0
-165 -36 0
-178 -34 0
-179 -35 0
-180 -36 0
-196 -34 0
-197 -35 0
-198 -36 0
-73 -37 0
-74 -38 0
-75 -39 0
-85 -37 0
-86 -38 0
-87 -39 0
-130 -37 0
-131 -38 0
-132 -39 0
-148 -37 0
-149 -38 0
-150 -39 0
-196 -37 0
-197 -38 0
-198 -39 0
-223 -37 0
-224 -38 0
-225 -39 0
-64 -40 0
-65 -41 0
-66 -42 0
-82 -40 0
-83 -41 0
-84 -42 0
-88 -40 0
-89 -41 0
-90 -42 0
-112 -40 0
-113 -41 0
-114 -42 0
-118 -43 0
-119 -44 0
-120 -45 0
-187 -43 0
-188 -44 0
-189 -45 0
-190 -43 0
-191 -44 0
-192 -45 0
-52 -46 0
-53 -47 0
-54 -48 0
-58 -46 0
-59 -47 0
-60 -48 0
-109 -46 0
-110 -47 0
-111 -48 0
-145 -46 0
-146 -47 0
-147 -48 0
-196 -46 0
-197 -47 0
-198 -48 0
-217 -46 0
-218 -47 0
-219 -48 0
-58 -49 0
-59 -50 0
-60 -51 0
-106 -49 0
-107 -50 0
-108 -51 0
-115 -49 0
-116 -50 0
-117 -51 0
-205 -49 0
-206 -50 0
-207 -51 0
-151 -52 0
-152 -53 0
-153 -54 0
-196 -52 0
-197 -53 0
-198 -54 0
-151 -55 0
-152 -56 0
-153 -57 0
-157 -55 0
-158 -56 0
-159 -57 0
-160 -55 0
-161 -56 0
-162 -57 0
-220 -55 0
-221 -56 0
-222 -57 0
-73 -58 0
-74 -59 0
-75 -60 0
-124 -58 0
-125 -59 0
-126 -60 0
-145 -58 0
-146 -59 0
-147 -60 0
-184 -58 0
-185 -59 0
-186 -60 0
-190 -58 0
-191 -59 0
-192 -60 0
-85 -61 0
-86 -62 0
-87 -63 0
-97 -61 0
-98 -62 0
-99 -63 0
-121 -61 0
-122 -62 0
-123 -63 0
-124 -61 0
-125 -62 0
-126 -63 0
-67 -64 0
-68 -65 0
-69 -66 0
-199 -64 0
-200 -65 0
-201 -66 0
-208 -64 0
-209 -65 0
-210 -66 0
-91 -67 0
-92 -68 0
-93 -69 0
-121 -67 0
-122 -68 0
-123 -69 0
-160 -67 0
-161 -68 0
-162 -69 0
-133 -70 0
-134 -71 0
-135 -72 0
-145 -70 0
-146 -71 0
-147 -72 0
-163 -70 0
-164 -71 0
-165 -72 0
-106 -73 0
-107 -74 0
-108 -75 0
-115 -73 0
-116 -74 0
-117 -75 0
-217 -73 0
-218 -74 0
-219 -75 0
-100 -76 0
-101 -77 0
-102 -78 0
-115 -76 0
-116 -77 0
-117 -78 0
-145 -76 0
-146 -77 0
-147 -78 0
-145 -79 0
-146 -80 0
-147 -81 0
-196 -79 0
-197 -80 0
-198 -81 0
-208 -79 0
-209 -80 0
-210 -81 0
-220 -79 0
-221 -80 0
-222 -81 0
-88 -82 0
-89 -83 0
-90 -84 0
-133 -82 0
-134 -83 0
-135 -84 0
-139 -82 0
-140 -83 0
-141 -84 0
-172 -82 0
-173 -83 0
-174 -84 0
-166 -85 0
-167 -86 0
-168 -87 0
-220 -85 0
-221 -86 0
-222 -87 0
-97 -88 0
-98 -89 0
-99 -90 0
-109 -88 0
-110 -89 0
-111 -90 0
-178 -88 0
-179 -89 0
-180 -90 0
-139 -94 0
-140 -95 0
-141 -96 0
-160 -94 0
-161 -95 0
-162 -96 0
-166 -94 0
-167 -95 0
-168 -96 0
-172 -94 0
-173 -95 0
-174 -96 0
-190 -94 0
-191 -95 0
-192 -96 0
-211 -97 0
-212 -98 0
-213 -99 0
-220 -100 0
-221 -101 0
-222 -102 0
-124 -103 0
-125 -104 0
-126 -105 0
-157 -103 0
-158 -104 0
-159 -105 0
-109 -106 0
-110 -107 0
-111 -108 0
-154 -106 0
-155 -107 0
-156 -108 0
-157 -106 0
-158 -107 0
-159 -108 0
-202 -106 0
-203 -107 0
-204 -108 0
-121 -109 0
-122 -110 0
-123 -111 0
-130 -109 0
-131 -110 0
-132 -111 0
-166 -109 0
-167 -110 0
-168 -111 0
-172 -109 0
-173 -110 0
-174 -111 0
-139 -112 0
-140 -113 0
-141 -114 0
-202 -112 0
-203 -113 0
-204 -114 0
-211 -112 0
-212 -113 0
-213 -114 0
-214 -112 0
-215 -113 0
-216 -114 0
-118 -115 0
-119 -116 0
-120 -117 0
-139 -115 0
-140 -116 0
-141 -117 0
-148 -115 0
-149 -116 0
-150 -117 0
-214 -115 0
-215 -116 0
-216 -117 0
-163 -118 0
-164 -119 0
-165 -120 0
-193 -118 0
-194 -119 0
-195 -120 0
-169 -121 0
-170 -122 0
-171 -123 0
-208 -121 0
-209 -122 0
-210 -123 0
-139 -124 0
-140 -125 0
-141 -126 0
-178 -124 0
-179 -125 0
-180 -126 0
-175 -127 0
-176 -128 0
-177 -129 0
-178 -127 0
-179 -128 0
-180 -129 0
-190 -127 0
-191 -128 0
-192 -129 0
-166 -133 0
-167 -134 0
-168 -135 0
-190 -133 0
-191 -134 0
-192 -135 0
-205 -133 0
-206 -134 0
-207 -135 0
-217 -133 0
-218 -134 0
-219 -135 0
-142 -136 0
-143 -137 0
-144 -138 0
-199 -139 0
-200 -140 0
-201 -141 0
-160 -142 0
-161 -143 0
-162 -144 0
-184 -142 0
-185 -143 0
-186 -144 0
-217 -148 0
-218 -149 0
-219 -150 0
-220 -148 0
-221 -149 0
-222 -150 0
-205 -151 0
-206 -152 0
-207 -153 0
-193 -154 0
-194 -155 0
-195 -156 0
-178 -157 0
-179 -158 0
-180 -159 0
-181 -157 0
-182 -158 0
-183 -159 0
-187 -157 0
-188 -158 0
-189 -159 0
-166 -160 0
-167 -161 0
-168 -162 0
-178 -163 0
-179 -164 0
-180 -165 0
-181 -166 0
-182 -167 0
-183 -168 0
-199 -166 0
-200 -167 0
-201 -168 0
-220 -181 0
-221 -182 0
-222 -183 0
-187 -184 0
-188 -185 0
-189 -186 0
-199 -184 0
-200 -185 0
-201 -186 0
-211 -190 0
-212 -191 0
-213 -192 0
-214 -199 0
-215 -200 0
-216 -201 0
-223 -202 0
-224 -203 0
-225 -204 0
-220 -205 0
-221 -206 0
-222 -207 0
-217 -211 0
-218 -212 0
-219 -213 0
